\ Model ajuste
\ LP format - for model browsing. Use MPS format to capture full model detail.
Minimize
  - 5.0653636441028357e+07 coef_ajuste + 2.5326818220514178e+07 Constant + [
   5.0653636441028468e+07 coef_ajuste ^2 ] / 2 
Subject To
Bounds
 coef_ajuste <= 1
 Constant = 1
End
